SCIP Status        : solving was interrupted [time limit reached]
Total Time         :    3600.02
  solving          :    3600.02
  presolving       :       0.01 (included in solving)
  reading          :       0.00
  copying          :       0.10 (32 #copies) (minimal 0.00, maximal 0.00, average 0.00)
Original Problem   :
  Problem name     : pindyck
  Variables        : 116 (0 binary, 0 integer, 0 implicit integer, 116 continuous)
  Constraints      : 96 initial, 96 maximal
  Objective        : minimize, 16 non-zeros (abs.min = 0.481017, abs.max = 1)
Presolved Problem  :
  Problem name     : t_pindyck
  Variables        : 237 (0 binary, 0 integer, 0 implicit integer, 237 continuous)
  Constraints      : 91 initial, 91 maximal
  Objective        : minimize, 16 non-zeros (abs.min = 0.481017, abs.max = 1)
  Nonzeros         : 302 constraint, 0 clique table
Presolvers         :   ExecTime  SetupTime  Calls  FixedVars   AggrVars   ChgTypes  ChgBounds   AddHoles    DelCons    AddCons   ChgSides   ChgCoefs
  boundshift       :       0.00       0.00      0          0          0          0          0          0          0          0          0          0
  convertinttobin  :       0.00       0.00      0          0          0          0          0          0          0          0          0          0
  domcol           :       0.00       0.00      1          0          0          0          0          0          0          0          0          0
  dualagg          :       0.00       0.00      0          0          0          0          0          0          0          0          0          0
  dualcomp         :       0.00       0.00      1          0          0          0          0          0          0          0          0          0
  dualinfer        :       0.00       0.00      0          0          0          0          0          0          0          0          0          0
  dualsparsify     :       0.00       0.00      1          0          0          0          0          0          0          0          0          0
  gateextraction   :       0.00       0.00      0          0          0          0          0          0          0          0          0          0
  implics          :       0.00       0.00      1          0          0          0          0          0          0          0          0          0
  inttobinary      :       0.00       0.00      0          0          0          0          0          0          0          0          0          0
  qpkktref         :       0.00       0.00      0          0          0          0          0          0          0          0          0          0
  redvub           :       0.00       0.00      0          0          0          0          0          0          0          0          0          0
  sparsify         :       0.00       0.00      1          0          0          0          0          0          0          0          0          0
  stuffing         :       0.00       0.00      0          0          0          0          0          0          0          0          0          0
  trivial          :       0.00       0.00      5          4          0          0          0          0          0          0          0          0
  tworowbnd        :       0.00       0.00      0          0          0          0          0          0          0          0          0          0
  dualfix          :       0.00       0.00      5          0          0          0          0          0          0          0          0          0
  genvbounds       :       0.00       0.00      0          0          0          0          0          0          0          0          0          0
  probing          :       0.00       0.00      0          0          0          0          0          0          0          0          0          0
  pseudoobj        :       0.00       0.00      0          0          0          0          0          0          0          0          0          0
  symmetry         :       0.00       0.00      1          0          0          0          0          0          0          0          0          0
  vbounds          :       0.00       0.00      0          0          0          0          0          0          0          0          0          0
  linear           :       0.00       0.00      6          0          5          0        227          0          5          0          0          0
  nonlinear        :       0.01       0.00      7          0          0          0        128          0          0          0          0          0
  benders          :       0.00       0.00      0          0          0          0          0          0          0          0          0          0
  components       :       0.00       0.00      1          0          0          0          0          0          0          0          0          0
  root node        :          -          -      -          0          -          -        307          -          -          -          -          -
Constraints        :     Number  MaxNumber  #Separate #Propagate    #EnfoLP    #EnfoRelax  #EnfoPS    #Check   #ResProp    Cutoffs    DomReds       Cuts    Applied      Conss   Children
  benderslp        :          0          0          0          0     856092          0          0     430322          0          0          0          0          0          0          0
  integral         :          0          0          0          0     856092          0          0     430322          0          0          0          0          0          0          0
  linear           :         59         59         11    6023108          0          0          0     430318          0      52831   15581410          0          0          0          0
  nonlinear        :         32         32    2249998    5970278     856092          0          0     430315          0       6942   22623626   13646928   13211246          0    1541988
  benders          :          0          0          0          0          0          0          0        341          0          0          0          0          0          0          0
  countsols        :          0          0          0          0          0          0          0        341          0          0          0          0          0          0          0
  components       :          0          0          0          0          0          0          0          0          0          0          0          0          0          0          0
Constraint Timings :  TotalTime  SetupTime   Separate  Propagate     EnfoLP     EnfoPS     EnfoRelax   Check    ResProp    SB-Prop
  benderslp        :       0.30       0.00       0.00       0.00       0.27       0.00       0.00       0.03       0.00       0.00
  integral         :       0.25       0.00       0.00       0.00       0.20       0.00       0.00       0.05       0.00       0.00
  linear           :      31.85       0.00       0.00      31.47       0.00       0.00       0.00       0.37       0.00       0.00
  nonlinear        :     789.83       0.00     436.22     157.21     189.32       0.00       0.00       7.08       0.00       0.00
  benders          :       0.00       0.00       0.00       0.00       0.00       0.00       0.00       0.00       0.00       0.00
  countsols        :       0.00       0.00       0.00       0.00       0.00       0.00       0.00       0.00       0.00       0.00
  components       :       0.23       0.00       0.00       0.23       0.00       0.00       0.00       0.00       0.00       0.00
Propagators        : #Propagate   #ResProp    Cutoffs    DomReds
  dualfix          :          6          0          0          0
  genvbounds       :    1323006          0       3046    4510369
  nlobbt           :          0          0          0          0
  obbt             :          4          0          0         70
  probing          :          0          0          0          0
  pseudoobj        :    6878657          0          0     704397
  redcost          :          0          0          0          0
  rootredcost      :          9          0          0          0
  symmetry         :          0          0          0          0
  vbounds          :          0          0          0          0
Propagator Timings :  TotalTime  SetupTime   Presolve  Propagate    ResProp    SB-Prop
  dualfix          :       0.00       0.00       0.00       0.00       0.00       0.00
  genvbounds       :      13.52       0.00       0.00      13.52       0.00       0.00
  nlobbt           :       0.00       0.00       0.00       0.00       0.00       0.00
  obbt             :       0.77       0.00       0.00       0.77       0.00       0.00
  probing          :       0.00       0.00       0.00       0.00       0.00       0.00
  pseudoobj        :       8.78       0.00       0.00       8.78       0.00       0.00
  redcost          :       1.36       0.00       0.00       1.36       0.00       0.00
  rootredcost      :       0.99       0.00       0.00       0.99       0.00       0.00
  symmetry         :       0.56       0.00       0.00       0.56       0.00       0.00
  vbounds          :       1.00       0.00       0.00       1.00       0.00       0.00
Conflict Analysis  :       Time      Calls    Success    DomReds  Conflicts   Literals    Reconvs ReconvLits   Dualrays   Nonzeros   LP Iters   (pool size: [--,--])
  propagation      :       0.00          0          0          -          0        0.0          0        0.0          -          -          -
  infeasible LP    :       0.00         57          0          -          0        0.0          0        0.0          0        0.0          0
  bound exceed. LP :       4.01      44411          0          -          0        0.0          0        0.0          0        0.0          0
  strong branching :       0.00          0          0          -          0        0.0          0        0.0          -          -          0
  pseudo solution  :       0.00          0          0          -          0        0.0          0        0.0          -          -          -
  applied globally :       0.00          -          -          0          0        0.0          -          -          0          -          -
  applied locally  :          -          -          -          0          0        0.0          -          -          0          -          -
Separators         :   ExecTime  SetupTime      Calls  RootCalls    Cutoffs    DomReds  FoundCuts ViaPoolAdd  DirectAdd    Applied ViaPoolApp  DirectApp      Conss
  cut pool         :       0.00          -          0          0          -          -          0          0          -          -          -          -          -    (maximal pool size:          0)
  aggregation      :       0.00       0.00          0          0          0          0          0          0          0          0          0          0          0
  > cmir           :          -          -          -          -          -          -          -          0          0          0          0          0          -
  > flowcover      :          -          -          -          -          -          -          -          0          0          0          0          0          -
  > knapsackcover  :          -          -          -          -          -          -          -          0          0          0          0          0          -
  cgmip            :       0.00       0.00          0          0          0          0          0          0          0          0          0          0          0
  clique           :       0.00       0.00          0          0          0          0          0          0          0          0          0          0          0
  closecuts        :       0.00       0.00          0          0          0          0          0          0          0          0          0          0          0
  convexproj       :       0.00       0.00          0          0          0          0          0          0          0          0          0          0          0
  disjunctive      :       0.00       0.00          0          0          0          0          0          0          0          0          0          0          0
  eccuts           :       0.00       0.00          0          0          0          0          0          0          0          0          0          0          0
  gauge            :       0.00       0.00          0          0          0          0          0          0          0          0          0          0          0
  gomory           :       0.01       0.00          0          0          0          0          0          0          0          0          0          0          0
  > gomorymi       :          -          -          -          -          -          -          -          0          0          0          0          0          -
  > strongcg       :          -          -          -          -          -          -          -          0          0          0          0          0          -
  impliedbounds    :       0.00       0.00          0          0          0          0          0          0          0          0          0          0          0
  interminor       :       0.00       0.00          0          0          0          0          0          0          0          0          0          0          0
  intobj           :       0.00       0.00          0          0          0          0          0          0          0          0          0          0          0
  mcf              :       0.00       0.00          0          0          0          0          0          0          0          0          0          0          0
  minor            :       0.00       0.00          0          0          0          0          0          0          0          0          0          0          0
  mixing           :       0.00       0.00       5330         11          0          0          0          0          0          0          0          0          0
  oddcycle         :       0.00       0.00          0          0          0          0          0          0          0          0          0          0          0
  rapidlearning    :       0.02       0.00          0          0          0          0          0          0          0          0          0          0          0
  rlt              :       0.00       0.00         10         10          0          0          0          0          0          0          0          0          0
  zerohalf         :       0.00       0.00          0          0          0          0          0          0          0          0          0          0          0
Cutselectors       :   ExecTime  SetupTime      Calls  RootCalls   Selected     Forced   Filtered  RootSelec   RootForc   RootFilt 
  hybrid           :       7.11       0.00    1872582          8   13179845          0     358714        223          0          1
Pricers            :   ExecTime  SetupTime      Calls       Vars
  problem variables:       0.00          -          0          0
Branching Rules    :   ExecTime  SetupTime   BranchLP  BranchExt   BranchPS    Cutoffs    DomReds       Cuts      Conss   Children
  allfullstrong    :       0.00       0.00          0          0          0          0          0          0          0          0
  cloud            :       0.00       0.00          0          0          0          0          0          0          0          0
  distribution     :       0.00       0.00          0          0          0          0          0          0          0          0
  fullstrong       :       0.00       0.00          0          0          0          0          0          0          0          0
  inference        :       0.00       0.00          0          0          0          0          0          0          0          0
  leastinf         :       0.00       0.00          0          0          0          0          0          0          0          0
  lookahead        :       0.00       0.00          0          0          0          0          0          0          0          0
  mostinf          :       0.00       0.00          0          0          0          0          0          0          0          0
  multaggr         :       0.00       0.00          0          0          0          0          0          0          0          0
  nodereopt        :       0.00       0.00          0          0          0          0          0          0          0          0
  pscost           :       0.00       0.00          0          0          0          0          0          0          0          0
  random           :       0.00       0.00          0          0          0          0          0          0          0          0
  relpscost        :       0.00       0.00          0          0          0          0          0          0          0          0
  vanillafullstrong:       0.00       0.00          0          0          0          0          0          0          0          0
Primal Heuristics  :   ExecTime  SetupTime      Calls      Found       Best
  LP solutions     :       0.00          -          -          0          0
  relax solutions  :       0.00          -          -          0          0
  pseudo solutions :       0.00          -          -          0          0
  strong branching :       0.00          -          -          0          0
  actconsdiving    :       0.00       0.00          0          0          0
  adaptivediving   :       6.15       0.00      81361          0          0
  alns             :       0.24       0.00         32          0          0
  bound            :       0.00       0.00          0          0          0
  clique           :       0.00       0.00          0          0          0
  coefdiving       :       0.00       0.00          0          0          0
  completesol      :       0.00       0.00          0          0          0
  conflictdiving   :       0.08       0.00          0          0          0
  crossover        :       0.15       0.00          0          0          0
  dins             :       0.00       0.00          0          0          0
  distributiondivin:       0.02       0.00          0          0          0
  dps              :       0.00       0.00          0          0          0
  dualval          :       0.00       0.00          0          0          0
  farkasdiving     :       0.03       0.00          0          0          0
  feaspump         :       0.01       0.00          0          0          0
  fixandinfer      :       0.00       0.00          0          0          0
  fracdiving       :       3.29       0.00      65574          0          0
  gins             :       0.03       0.00          0          0          0
  guideddiving     :       0.03       0.00          0          0          0
  indicator        :       0.58       0.00          0          0          0
  indicatordiving  :       0.00       0.00          0          0          0
  intdiving        :       0.00       0.00          0          0          0
  intshifting      :       0.03       0.00          0          0          0
  linesearchdiving :       3.35       0.00      68052          0          0
  localbranching   :       0.00       0.00          0          0          0
  locks            :       0.00       0.00          0          0          0
  lpface           :       0.33       0.00          0          0          0
  mpec             :       0.00       0.00          0          0          0
  multistart       :       0.59       0.00          1          0          0
  mutation         :       0.00       0.00          0          0          0
  nlpdiving        :       0.05       0.00          0          0          0
  objpscostdiving  :       0.03       0.00          0          0          0
  octane           :       0.00       0.00          0          0          0
  ofins            :       0.17       0.00          0          0          0
  oneopt           :       0.42       0.00          0          0          0
  padm             :       0.00       0.00          0          0          0
  proximity        :       0.00       0.00          0          0          0
  pscostdiving     :       0.01       0.00          0          0          0
  randrounding     :       0.03       0.00          0          0          0
  rens             :       0.34       0.00          0          0          0
  reoptsols        :       0.00       0.00          0          0          0
  repair           :       0.00       0.00          0          0          0
  rins             :       0.03       0.00          0          0          0
  rootsoldiving    :       0.03       0.00          0          0          0
  rounding         :       0.75       0.00          0          0          0
  shiftandpropagate:       0.00       0.00          0          0          0
  shifting         :       0.07       0.00          0          0          0
  simplerounding   :       0.62       0.00          0          0          0
  subnlp           :      47.33       0.00       3209        340         10
  trivial          :       0.00       0.00          2          0          0
  trivialnegation  :       0.00       0.00          0          0          0
  trustregion      :       0.00       0.00          0          0          0
  trysol           :       0.40       0.00          0          0          0
  twoopt           :       0.00       0.00          0          0          0
  undercover       :       0.07       0.00          1          0          0
  vbounds          :       0.00       0.00          0          0          0
  veclendiving     :       0.02       0.00          0          0          0
  zeroobj          :       0.00       0.00          0          0          0
  zirounding       :       0.32       0.00          0          0          0
  other solutions  :          -          -          -          0          -
Expressions        :   #IntEval  IntEvalTi   #RevProp  RevPropTi    DomReds    Cutoffs  #Estimate  EstimTime  Branching  #Simplify SimplifyTi Simplified
  exp              :   42942838       4.88      12395       0.01        225          0     146629       0.03      34313        174       0.00          0
  pow              :   23375420       4.43         48       0.00          0          0   12554804       2.52    3028533         95       0.00          1
  prod             :   15857020       3.30     421577       0.22     192340          0  122450429       8.93   34008897        312       0.00         80
  sum              :   60033612      12.80   15840001       9.49    4874050       3892         35       0.00          0        471       0.00        148
  val              :          0       0.00          0       0.00          0          0          0       0.00          0          0       0.00          0
  var              :   48324589       2.50          0       0.00          0          0          0       0.00          0        797       0.00          7
Nlhdlrs            :    Detects  DetectAll DetectTime   #IntEval  IntEvalTi   #RevProp  RevPropTi    DomReds    Cutoffs   #Enforce   EnfoTime       Cuts  Branching
  soc              :          0          0       0.00          0       0.00          0       0.00          0          0          0       0.00          0          0
  convex           :         33         33       0.00          0       0.00          0       0.00          0          0    5349589       6.18    5349556          0
  concave          :         30         30       0.00          0       0.00          0       0.00          0          0   16427462      26.67     672637          0
  signomial        :         15         15       0.00          0       0.00          0       0.00          0          0   80646232      18.75          0          0
  quotient         :         15         15       0.00          0       0.00          0       0.00          0          0   40323116      34.94    1155017          0
  quadratic        :         16        128       0.00   13640949      14.34   13603733      25.98    4002734          0          0       0.00          0          0
  default          :        252       1687       0.00  142208254      34.45   16274297      23.26    5066615       3892  135151832     174.63    5907627          0
  bilinear         :         47         47       0.00   15856386       0.79     421543       0.03          0          0  118107577      16.66     562091          0
  perspective      :          0          0       0.00          0       0.00          0       0.00          0          0          0       0.00          0          0
LP                 :       Time      Calls Iterations  Iter/call   Iter/sec  Time-0-It Calls-0-It    ItLimit
  primal LP        :     427.62     583006          0       0.00       0.00     427.57     583006
  dual LP          :    1812.07    2769766   18249394       7.68   10071.04     374.52     393994
  lex dual LP      :       0.00          0          0       0.00          -
  barrier LP       :       0.00          0          0       0.00          -       0.00          0
  resolve instable :       0.00          0          0       0.00          -
  diving/probing LP:       0.75        209      18812      90.01   25216.82
  strong branching :       0.00          0          0       0.00          -          -          -          0
    (at root node) :          -          0          0       0.00          -
  conflict analysis:       0.00          0          0       0.00          -
NLP relaxation     :
  solve time       :       0.00 (0 calls)
  convexity        :  nonconvex (59 linear rows, 0 convex ineq., 0 nonconvex ineq., 32 nonlinear eq. or two-sided ineq.)
NLP Solvers        :  #Problems  ProblemTi    #Solves  SolveTime      #Iter  Time/Iter      #Okay #TimeLimit #IterLimit #LObjLimit #Interrupt  #NumError #EvalError  #OutOfMem #LicenseEr #OtherTerm   #GlobOpt    #LocOpt  #Feasible #LocInfeas #GlobInfea #Unbounded   #Unknown
  ipopt            :          2       0.00       3212      45.84      28064       0.00       3211          0          1          0          0          0          0          0          0          0          0       3211          1          0          0          0          0
B&B Tree           :
  number of runs   :          1
  nodes            :     879601 (770994 internal, 108607 leaves)
  feasible leaves  :          0
  infeas. leaves   :      62830
  objective leaves :      45776
  nodes (total)    :     879601 (770994 internal, 108607 leaves)
  nodes left       :     662389
  max depth        :         48
  max depth (total):         48
  backtracks       :     147410 (16.8%)
  early backtracks :          0 (0.0%)
  nodes exc. ref.  :          0 (0.0%)
  delayed cutoffs  :          0
  repropagations   :         11 (0 domain reductions, 0 cutoffs)
  avg switch length:       9.03
  switching time   :     509.66
Root Node          :
  First LP value   : -3.24669998538052e+04
  First LP Iters   :        104 (26838.71 Iter/sec)
  First LP Time    :       0.00
  Final Dual Bound : -3.17549403907592e+03
  Final Root Iters :        542
  Root LP Estimate : -3.15446095201479e+03
Solution           :
  Solutions found  :        340 (10 improvements)
  First Solution   : -1.17048628543609e+03   (in run 1, after 1 nodes, 0.13 seconds, depth 0, found by <subnlp>)
  Gap First Sol.   :    2673.80 %
  Gap Last Sol.    :      46.06 %
  Primal Bound     : -1.17048628545511e+03   (in run 1, after 136491 nodes, 534.80 seconds, depth 19, found by <adaptivediving>)
  Dual Bound       : -1.60222611721925e+03
  Gap              :      36.89 %
Integrals          :      Total       Avg%
  primal-dual      :  105950.57      29.43
  primal-ref       :          -          - (not evaluated)
  dual-ref         :          -          - (not evaluated)
